(set-option :produce-models true); benchmark generated from python API
(set-info :status unknown)
(declare-fun l_1_0_13 () Real)
(declare-fun l_1_0_11 () Real)
(declare-fun l_1_0_12 () Real)
(declare-fun l_1_0_10 () Real)
(declare-fun _a_0_ () Real)
(declare-fun l_1_0_9 () Real)
(declare-fun l_1_0_8 () Real)
(declare-fun l_1_0_7 () Real)
(declare-fun l_1_0_6 () Real)
(declare-fun l_1_0_5 () Real)
(declare-fun l_1_0_4 () Real)
(declare-fun l_1_0_3 () Real)
(declare-fun l_1_0_2 () Real)
(declare-fun l_1_0_1 () Real)
(declare-fun _a_1_ () Real)
(declare-fun _a_2_ () Real)
(declare-fun _a_3_ () Real)
(declare-fun _a_4_ () Real)
(declare-fun l_1_0_14 () Real)
(declare-fun _a_5_ () Real)
(declare-fun l_1_1_8 () Real)
(declare-fun l_1_1_7 () Real)
(declare-fun l_1_1_5 () Real)
(declare-fun l_1_1_4 () Real)
(declare-fun l_1_1_15 () Real)
(declare-fun l_1_1_14 () Real)
(declare-fun l_1_1_13 () Real)
(declare-fun l_1_1_11 () Real)
(declare-fun l_1_1_10 () Real)
(declare-fun l_1_1_1 () Real)
(declare-fun l_1_1_9 () Real)
(declare-fun l_1_1_6 () Real)
(declare-fun l_1_1_3 () Real)
(declare-fun l_1_1_2 () Real)
(declare-fun l_1_1_12 () Real)
(declare-fun l_1_1_17 () Real)
(declare-fun l_1_1_16 () Real)
(declare-fun l_1_1_20 () Real)
(declare-fun l_1_1_19 () Real)
(declare-fun l_1_1_18 () Real)
(declare-fun l_1_2_8 () Real)
(declare-fun l_1_2_7 () Real)
(declare-fun l_1_2_5 () Real)
(declare-fun l_1_2_20 () Real)
(declare-fun l_1_2_2 () Real)
(declare-fun l_1_2_19 () Real)
(declare-fun l_1_2_18 () Real)
(declare-fun l_1_2_12 () Real)
(declare-fun l_1_2_11 () Real)
(declare-fun l_1_2_10 () Real)
(declare-fun l_1_2_6 () Real)
(declare-fun l_1_2_4 () Real)
(declare-fun l_1_2_1 () Real)
(declare-fun l_1_2_17 () Real)
(declare-fun l_1_2_16 () Real)
(declare-fun l_1_2_9 () Real)
(declare-fun l_1_2_3 () Real)
(declare-fun l_1_2_15 () Real)
(declare-fun l_1_2_14 () Real)
(declare-fun l_1_2_13 () Real)
(assert
 (let ((?x1728 (- (- _a_0_ (* (* 2.0 l_1_0_10) l_1_0_12)) (* (* 2.0 l_1_0_11) l_1_0_13))))
 (= ?x1728 0.0)))
(assert
 (let ((?x1679 (* l_1_0_9 l_1_0_9)))
 (let ((?x1677 (* 8.0 l_1_0_6)))
 (let ((?x1699 (* 8.0 l_1_0_4)))
 (let ((?x1698 (* 64.0 l_1_0_3)))
 (let ((?x982 (- (+ (- (- (+ _a_1_ (* 8.0 l_1_0_1)) l_1_0_2) ?x1698) ?x1699) l_1_0_5)))
 (= (- (- (- (+ ?x982 ?x1677) l_1_0_7) l_1_0_8) ?x1679) 0.0)))))))
(assert
 (let ((?x1524 (* 6.0 l_1_0_6)))
 (let ((?x1601 (* 6.0 l_1_0_4)))
 (let ((?x1600 (* 96.0 l_1_0_3)))
 (let ((?x1153 (- (- _a_2_ (* 6.0 l_1_0_1)) (* (* 2.0 l_1_0_12) l_1_0_9))))
 (= (- (- (+ ?x1153 ?x1600) ?x1601) ?x1524) 0.0))))))
(assert
 (= (- _a_3_ (* (* 2.0 l_1_0_10) l_1_0_9)) 0.0))
(assert
 (let ((?x1377 (* 16.0 l_1_0_3)))
 (let ((?x1460 (* l_1_0_11 l_1_0_11)))
 (let ((?x1379 (+ (- (- (- (+ _a_4_ l_1_0_1) (* l_1_0_10 l_1_0_10)) ?x1460) ?x1377) l_1_0_4)))
 (= (+ ?x1379 l_1_0_6) 0.0)))))
(assert
 (let ((?x1337 (* 52.0 l_1_0_3)))
 (let ((?x1335 (* l_1_0_14 l_1_0_14)))
 (let ((?x1334 (* l_1_0_13 l_1_0_13)))
 (let ((?x1338 (- (- (- (- (+ _a_5_ l_1_0_1) (* l_1_0_12 l_1_0_12)) ?x1334) ?x1335) ?x1337)))
 (= (+ (+ ?x1338 l_1_0_4) l_1_0_6) 0.0))))))
(assert
 (= (- l_1_0_3) 0.0))
(assert
 (= (* (- 2.0) l_1_0_3) 0.0))
(assert
 (= (* 12.0 l_1_0_3) 0.0))
(assert
 (= (- l_1_0_3) 0.0))
(assert
 (= (* 12.0 l_1_0_3) 0.0))
(assert
 (>= l_1_0_1 0.0))
(assert
 (>= l_1_0_2 0.0))
(assert
 (>= l_1_0_3 0.0))
(assert
 (>= l_1_0_4 0.0))
(assert
 (>= l_1_0_5 0.0))
(assert
 (>= l_1_0_6 0.0))
(assert
 (>= l_1_0_7 0.0))
(assert
 (>= l_1_0_8 0.0))
(assert
 (>= l_1_0_9 0.0))
(assert
 (>= l_1_0_11 0.0))
(assert
 (>= l_1_0_14 0.0))
(assert
 (let ((?x1160 (* 5.0 l_1_1_5)))
 (let ((?x1157 (* 5.0 l_1_1_4)))
 (let ((?x1067 (* l_1_1_15 l_1_1_15)))
 (let ((?x1154 (* 5.0 l_1_1_13)))
 (let ((?x1146 (* 25.0 l_1_1_10)))
 (let ((?x1243 (* _a_1_ l_1_1_6)))
 (let ((?x1242 (- (- (* (- _a_1_) l_1_1_12) (* _a_1_ l_1_1_2)) (* (* 5.0 _a_1_) l_1_1_3))))
 (let ((?x1249 (- (- (- ?x1242 ?x1243) (* (* 5.0 _a_1_) l_1_1_9)) (* (* l_1_1_1 _a_1_) _a_1_))))
 (let ((?x1159 (- (- (- (- (- (- ?x1249 ?x1146) l_1_1_11) ?x1154) l_1_1_14) ?x1067) ?x1157)))
 (= (+ (- (- (- ?x1159 ?x1160) l_1_1_7) l_1_1_8) 1.0) 0.0)))))))))))
(assert
 (let ((?x526 (* l_1_1_17 l_1_1_17)))
 (let ((?x520 (* l_1_1_16 l_1_1_16)))
 (let ((?x514 (* 10.0 l_1_1_10)))
 (let ((?x457 (* _a_4_ l_1_1_6)))
 (let ((?x32 (- (- (- (* (- _a_4_) l_1_1_12) (* _a_4_ l_1_1_2)) ?x457) (* l_1_1_1 (+ (* (* 2.0 _a_1_) _a_4_) (* _a_3_ _a_3_))))))
 (let ((?x358 (- (- (- (- (- ?x32 ?x514) l_1_1_13) ?x520) ?x526) (* l_1_1_3 (+ _a_1_ (* 5.0 _a_4_))))))
 (let ((?x405 (- (- (- ?x358 l_1_1_4) l_1_1_5) (* l_1_1_9 (+ _a_1_ (* 5.0 _a_4_))))))
 (= (- ?x405 1.0) 0.0)))))))))
(assert
 (let ((?x552 (* _a_3_ l_1_1_6)))
 (let ((?x592 (* _a_3_ l_1_1_2)))
 (let ((?x591 (* _a_3_ l_1_1_12)))
 (let ((?x595 (- (- (- (* (* (* (- 2.0) _a_1_) _a_3_) l_1_1_1) ?x591) ?x592) (* (* 5.0 _a_3_) l_1_1_3))))
 (let ((?x36 (- (- (- ?x595 ?x552) (* (* 5.0 _a_3_) l_1_1_9)) (* (* 2.0 l_1_1_15) l_1_1_16))))
 (= (+ ?x36 4.0) 0.0)))))))
(assert
 (let ((?x424 (* l_1_1_20 l_1_1_20)))
 (let ((?x492 (* l_1_1_19 l_1_1_19)))
 (let ((?x490 (* l_1_1_18 l_1_1_18)))
 (let ((?x487 (* 46.0 l_1_1_10)))
 (let ((?x479 (* _a_5_ l_1_1_6)))
 (let ((?x485 (- (- (- (* (- _a_5_) l_1_1_12) (* _a_5_ l_1_1_2)) ?x479) (* l_1_1_1 (+ (* (* 2.0 _a_1_) _a_5_) (* _a_2_ _a_2_))))))
 (let ((?x433 (- (- (- (- (- (- ?x485 ?x487) l_1_1_13) ?x490) ?x492) ?x424) (* l_1_1_3 (+ (- _a_1_ (* 6.0 _a_2_)) (* 5.0 _a_5_))))))
 (let ((?x360 (- (- (- ?x433 l_1_1_4) l_1_1_5) (* l_1_1_9 (+ (- _a_1_ (* 6.0 _a_2_)) (* 5.0 _a_5_))))))
 (= (- ?x360 1.0) 0.0))))))))))
(assert
 (let ((?x135 (* 6.0 l_1_1_5)))
 (let ((?x187 (* 6.0 l_1_1_4)))
 (let ((?x178 (* 6.0 l_1_1_13)))
 (let ((?x214 (* 60.0 l_1_1_10)))
 (let ((?x210 (* _a_2_ l_1_1_6)))
 (let ((?x207 (* _a_2_ l_1_1_2)))
 (let ((?x204 (* _a_2_ l_1_1_12)))
 (let ((?x212 (- (- (- (* (* (* (- 2.0) _a_1_) _a_2_) l_1_1_1) ?x204) ?x207) ?x210)))
 (let ((?x186 (- (- (+ (+ ?x212 ?x214) ?x178) (* (* 2.0 l_1_1_15) l_1_1_18)) (* l_1_1_3 (+ (* (- 6.0) _a_1_) (* 5.0 _a_2_))))))
 (let ((?x163 (- (+ (+ ?x186 ?x187) ?x135) (* l_1_1_9 (+ (* (- 6.0) _a_1_) (* 5.0 _a_2_))))))
 (= (+ ?x163 4.0) 0.0))))))))))))
(assert
 (let ((?x636 (* 2.0 l_1_1_10)))
 (let ((?x1402 (* _a_0_ _a_0_)))
 (let ((?x614 (+ ?x1402 (* (* 2.0 _a_4_) _a_5_))))
 (let ((?x1395 (- l_1_1_1)))
 (let ((?x639 (- (- (- (* ?x1395 ?x614) ?x636) (* l_1_1_3 (+ _a_4_ _a_5_))) (* l_1_1_9 (+ _a_4_ _a_5_)))))
 (= ?x639 0.0)))))))
(assert
 (let ((?x1134 (+ (* (* 2.0 _a_0_) _a_1_) (* (* 2.0 _a_2_) _a_3_))))
 (let ((?x1184 (* _a_0_ l_1_1_6)))
 (let ((?x1110 (- (- (- (* (- _a_0_) l_1_1_12) (* _a_0_ l_1_1_2)) ?x1184) (* l_1_1_1 ?x1134))))
 (let ((?x1119 (- (- ?x1110 (* (* 2.0 l_1_1_16) l_1_1_18)) (* (* 2.0 l_1_1_17) l_1_1_19))))
 (let ((?x831 (- (- ?x1119 (* l_1_1_3 (- (* 5.0 _a_0_) (* 6.0 _a_3_)))) (* l_1_1_9 (- (* 5.0 _a_0_) (* 6.0 _a_3_))))))
 (= ?x831 0.0)))))))
(assert
 (let ((?x1513 (+ (* (* 2.0 _a_0_) _a_2_) (* (* 2.0 _a_3_) _a_5_))))
 (let ((?x1395 (- l_1_1_1)))
 (let ((?x1606 (- (- (* ?x1395 ?x1513) (* l_1_1_3 (+ (* (- 6.0) _a_0_) _a_3_))) (* l_1_1_9 (+ (* (- 6.0) _a_0_) _a_3_)))))
 (= ?x1606 0.0)))))
(assert
 (let ((?x1196 (* 12.0 l_1_1_10)))
 (let ((?x1194 (+ (* (* 2.0 _a_0_) _a_3_) (* (* 2.0 _a_2_) _a_4_))))
 (let ((?x1395 (- l_1_1_1)))
 (let ((?x833 (- (+ (* ?x1395 ?x1194) ?x1196) (* l_1_1_3 (- _a_2_ (* 6.0 _a_4_))))))
 (= (- ?x833 (* l_1_1_9 (- _a_2_ (* 6.0 _a_4_)))) 0.0))))))
(assert
 (let ((?x948 (* _a_0_ l_1_1_9)))
 (let ((?x879 (* _a_0_ l_1_1_3)))
 (= (- (- (* (* (* (- 2.0) _a_0_) _a_4_) l_1_1_1) ?x879) ?x948) 0.0))))
(assert
 (let ((?x948 (* _a_0_ l_1_1_9)))
 (let ((?x879 (* _a_0_ l_1_1_3)))
 (= (- (- (* (* (* (- 2.0) _a_0_) _a_5_) l_1_1_1) ?x879) ?x948) 0.0))))
(assert
 (let ((?x1196 (* 12.0 l_1_1_10)))
 (let ((?x517 (- (+ (* (* (* (- 2.0) _a_2_) _a_5_) l_1_1_1) ?x1196) (* l_1_1_3 (- _a_2_ (* 6.0 _a_5_))))))
 (= (- ?x517 (* l_1_1_9 (- _a_2_ (* 6.0 _a_5_)))) 0.0))))
(assert
 (let ((?x428 (* _a_3_ l_1_1_9)))
 (let ((?x609 (* _a_3_ l_1_1_3)))
 (= (- (- (* (* (* (- 2.0) _a_3_) _a_4_) l_1_1_1) ?x609) ?x428) 0.0))))
(assert
 (let ((?x1358 (- (- (* (- _a_4_) l_1_1_3) (* _a_4_ l_1_1_9)) (* (* l_1_1_1 _a_4_) _a_4_))))
 (= (- ?x1358 l_1_1_10) 0.0)))
(assert
 (let ((?x1224 (- (- (* (- _a_5_) l_1_1_3) (* _a_5_ l_1_1_9)) (* (* l_1_1_1 _a_5_) _a_5_))))
 (= (- ?x1224 l_1_1_10) 0.0)))
(assert
 (>= l_1_1_1 0.0))
(assert
 (>= l_1_1_2 0.0))
(assert
 (>= l_1_1_3 0.0))
(assert
 (>= l_1_1_4 0.0))
(assert
 (>= l_1_1_5 0.0))
(assert
 (>= l_1_1_6 0.0))
(assert
 (>= l_1_1_7 0.0))
(assert
 (>= l_1_1_8 0.0))
(assert
 (>= l_1_1_9 0.0))
(assert
 (>= l_1_1_10 0.0))
(assert
 (>= l_1_1_11 0.0))
(assert
 (>= l_1_1_12 0.0))
(assert
 (>= l_1_1_13 0.0))
(assert
 (>= l_1_1_14 0.0))
(assert
 (>= l_1_1_15 0.0))
(assert
 (>= l_1_1_17 0.0))
(assert
 (>= l_1_1_20 0.0))
(assert
 (let ((?x1366 (* 46.0 l_1_2_7)))
 (let ((?x429 (* 5.0 _a_5_)))
 (let ((?x698 (- (+ (- _a_1_) (* 6.0 _a_2_)) ?x429)))
 (let ((?x940 (* l_1_2_20 l_1_2_20)))
 (let ((?x708 (* l_1_2_19 l_1_2_19)))
 (let ((?x701 (* l_1_2_18 l_1_2_18)))
 (let ((?x854 (* (/ 81.0 100.0) _a_5_)))
 (let ((?x1212 (* _a_5_ l_1_2_6)))
 (let ((?x1217 (* _a_5_ l_1_2_4)))
 (let ((?x1215 (- (- (+ (* (/ 9.0 100.0) _a_0_) (* (/ 1.0 100.0) _a_4_)) (* _a_5_ l_1_2_1)) ?x1217)))
 (let ((?x415 (- (+ (+ (- ?x1215 ?x1212) ?x854) l_1_2_10) (* l_1_2_11 (+ (* (* 2.0 _a_1_) _a_5_) (* _a_2_ _a_2_))))))
 (let ((?x936 (- (+ (- (- (- ?x415 (* l_1_2_12 ?x698)) ?x701) ?x708) l_1_2_2) ?x940)))
 (= (+ (- (- ?x936 (* l_1_2_5 ?x698)) ?x1366) l_1_2_8) 0.0))))))))))))))
(assert
 (let ((?x1134 (+ (* (* 2.0 _a_0_) _a_1_) (* (* 2.0 _a_2_) _a_3_))))
 (let ((?x1240 (* (/ 9.0 50.0) _a_4_)))
 (let ((?x901 (* (/ 81.0 100.0) _a_0_)))
 (let ((?x194 (* _a_0_ l_1_2_6)))
 (let ((?x1235 (+ (- (- (* (- _a_0_) l_1_2_1) (* _a_0_ l_1_2_4)) ?x194) ?x901)))
 (let ((?x226 (- (- (+ ?x1235 ?x1240) (* l_1_2_11 ?x1134)) (* l_1_2_12 (+ (* (- 5.0) _a_0_) (* 6.0 _a_3_))))))
 (let ((?x912 (- (- ?x226 (* (* 2.0 l_1_2_16) l_1_2_18)) (* (* 2.0 l_1_2_17) l_1_2_19))))
 (= (- ?x912 (* l_1_2_5 (+ (* (- 5.0) _a_0_) (* 6.0 _a_3_)))) 0.0)))))))))
(assert
 (let ((?x1320 (* 5.0 l_1_2_8)))
 (let ((?x1318 (* 25.0 l_1_2_7)))
 (let ((?x1321 (* 5.0 l_1_2_2)))
 (let ((?x929 (* l_1_2_15 l_1_2_15)))
 (let ((?x1539 (* 5.0 l_1_2_10)))
 (let ((?x729 (* _a_1_ l_1_2_6)))
 (let ((?x1496 (* _a_1_ l_1_2_4)))
 (let ((?x188 (- (+ (* (- _a_1_) l_1_2_1) (* (* 5.0 _a_1_) l_1_2_12)) ?x1496)))
 (let ((?x1532 (+ (+ (- (+ ?x188 (* (* 5.0 _a_1_) l_1_2_5)) ?x729) _a_1_) ?x1539)))
 (let ((?x913 (- (- (- ?x1532 (* (* l_1_2_11 _a_1_) _a_1_)) l_1_2_13) l_1_2_14)))
 (let ((?x1694 (- (+ (- (- (+ (- ?x913 ?x929) ?x1321) l_1_2_3) ?x1318) ?x1320) l_1_2_9)))
 (= ?x1694 0.0)))))))))))))
(assert
 (let ((?x1666 (* 6.0 l_1_2_8)))
 (let ((?x1664 (* 60.0 l_1_2_7)))
 (let ((?x789 (* 6.0 l_1_2_2)))
 (let ((?x418 (* 6.0 l_1_2_10)))
 (let ((?x316 (* (/ 1.0 10.0) _a_3_)))
 (let ((?x1434 (* (/ 9.0 10.0) _a_2_)))
 (let ((?x1437 (* _a_2_ l_1_2_6)))
 (let ((?x156 (* _a_2_ l_1_2_4)))
 (let ((?x159 (* _a_2_ l_1_2_1)))
 (let ((?x1432 (- (- (- (* (* (* (- 2.0) _a_1_) _a_2_) l_1_2_11) ?x159) ?x156) ?x1437)))
 (let ((?x1548 (- (- (+ (+ ?x1432 ?x1434) ?x316) ?x418) (* l_1_2_12 (- (* 6.0 _a_1_) (* 5.0 _a_2_))))))
 (let ((?x344 (- (- (- ?x1548 (* (* 2.0 l_1_2_15) l_1_2_18)) ?x789) (* l_1_2_5 (- (* 6.0 _a_1_) (* 5.0 _a_2_))))))
 (= (- (+ ?x344 ?x1664) ?x1666) 0.0))))))))))))))
(assert
 (let ((?x839 (* (/ 9.0 10.0) _a_3_)))
 (let ((?x843 (* _a_3_ l_1_2_6)))
 (let ((?x1230 (* _a_3_ l_1_2_4)))
 (let ((?x712 (* _a_3_ l_1_2_1)))
 (let ((?x793 (+ (- (* (* (* (- 2.0) _a_1_) _a_3_) l_1_2_11) ?x712) (* (* 5.0 _a_3_) l_1_2_12))))
 (let ((?x840 (+ (- (+ (- ?x793 ?x1230) (* (* 5.0 _a_3_) l_1_2_5)) ?x843) ?x839)))
 (= (- ?x840 (* (* 2.0 l_1_2_15) l_1_2_16)) 0.0))))))))
(assert
 (let ((?x1629 (* 10.0 l_1_2_7)))
 (let ((?x1696 (* l_1_2_17 l_1_2_17)))
 (let ((?x1707 (* l_1_2_16 l_1_2_16)))
 (let ((?x288 (* (/ 81.0 100.0) _a_4_)))
 (let ((?x291 (* _a_4_ l_1_2_6)))
 (let ((?x289 (+ (- (- (* (- _a_4_) l_1_2_1) (* _a_4_ l_1_2_4)) ?x291) ?x288)))
 (let ((?x1462 (- (+ ?x289 l_1_2_10) (* l_1_2_11 (+ (* (* 2.0 _a_1_) _a_4_) (* _a_3_ _a_3_))))))
 (let ((?x1674 (- (- (- ?x1462 (* l_1_2_12 (- (- _a_1_) (* 5.0 _a_4_)))) ?x1707) ?x1696)))
 (let ((?x1628 (- (+ ?x1674 l_1_2_2) (* l_1_2_5 (- (- _a_1_) (* 5.0 _a_4_))))))
 (= (+ (- ?x1628 ?x1629) l_1_2_8) 0.0)))))))))))
(assert
 (let ((?x1611 (* _a_0_ l_1_2_5)))
 (let ((?x1405 (* _a_0_ l_1_2_12)))
 (= (+ (+ (* (* (* (- 2.0) _a_0_) _a_4_) l_1_2_11) ?x1405) ?x1611) 0.0))))
(assert
 (let ((?x1611 (* _a_0_ l_1_2_5)))
 (let ((?x1405 (* _a_0_ l_1_2_12)))
 (= (+ (+ (* (* (* (- 2.0) _a_0_) _a_5_) l_1_2_11) ?x1405) ?x1611) 0.0))))
(assert
 (let ((?x1513 (+ (* (* 2.0 _a_0_) _a_2_) (* (* 2.0 _a_3_) _a_5_))))
 (let ((?x85 (- l_1_2_11)))
 (let ((?x1737 (- (- (* ?x85 ?x1513) (* l_1_2_12 (- (* 6.0 _a_0_) _a_3_))) (* l_1_2_5 (- (* 6.0 _a_0_) _a_3_)))))
 (= ?x1737 0.0)))))
(assert
 (let ((?x1788 (* 12.0 l_1_2_7)))
 (let ((?x1194 (+ (* (* 2.0 _a_0_) _a_3_) (* (* 2.0 _a_2_) _a_4_))))
 (let ((?x85 (- l_1_2_11)))
 (let ((?x1787 (- (- (* ?x85 ?x1194) (* l_1_2_12 (+ (- _a_2_) (* 6.0 _a_4_)))) (* l_1_2_5 (+ (- _a_2_) (* 6.0 _a_4_))))))
 (= (+ ?x1787 ?x1788) 0.0))))))
(assert
 (let ((?x1788 (* 12.0 l_1_2_7)))
 (let ((?x1836 (- (* (* (* (- 2.0) _a_2_) _a_5_) l_1_2_11) (* l_1_2_12 (+ (- _a_2_) (* 6.0 _a_5_))))))
 (= (+ (- ?x1836 (* l_1_2_5 (+ (- _a_2_) (* 6.0 _a_5_)))) ?x1788) 0.0))))
(assert
 (let ((?x893 (* _a_3_ l_1_2_5)))
 (let ((?x1568 (* _a_3_ l_1_2_12)))
 (= (+ (+ (* (* (* (- 2.0) _a_3_) _a_4_) l_1_2_11) ?x1568) ?x893) 0.0))))
(assert
 (let ((?x1885 (- (+ (* _a_4_ l_1_2_12) (* _a_4_ l_1_2_5)) (* (* l_1_2_11 _a_4_) _a_4_))))
 (= (- ?x1885 l_1_2_7) 0.0)))
(assert
 (let ((?x1903 (* 2.0 l_1_2_7)))
 (let ((?x1402 (* _a_0_ _a_0_)))
 (let ((?x614 (+ ?x1402 (* (* 2.0 _a_4_) _a_5_))))
 (let ((?x85 (- l_1_2_11)))
 (let ((?x1902 (- (- (* ?x85 ?x614) (* l_1_2_12 (- (- _a_4_) _a_5_))) (* l_1_2_5 (- (- _a_4_) _a_5_)))))
 (= (- ?x1902 ?x1903) 0.0)))))))
(assert
 (let ((?x1124 (* _a_5_ l_1_2_5)))
 (let ((?x1107 (* _a_5_ l_1_2_12)))
 (let ((?x1948 (+ ?x1107 ?x1124)))
 (= (- (- ?x1948 (* (* l_1_2_11 _a_5_) _a_5_)) l_1_2_7) 0.0)))))
(assert
 (>= l_1_2_1 0.0))
(assert
 (>= l_1_2_2 0.0))
(assert
 (>= l_1_2_3 0.0))
(assert
 (>= l_1_2_4 0.0))
(assert
 (>= l_1_2_5 0.0))
(assert
 (>= l_1_2_6 0.0))
(assert
 (>= l_1_2_7 0.0))
(assert
 (>= l_1_2_8 0.0))
(assert
 (>= l_1_2_9 0.0))
(assert
 (>= l_1_2_10 0.0))
(assert
 (>= l_1_2_11 0.0))
(assert
 (>= l_1_2_12 0.0))
(assert
 (>= l_1_2_13 0.0))
(assert
 (>= l_1_2_14 0.0))
(assert
 (>= l_1_2_15 0.0))
(assert
 (>= l_1_2_17 0.0))
(assert
 (>= l_1_2_20 0.0))
(check-sat)
(get-model)